param set_len = 22;
param target = 239126927;
param values := [0] 14538783 [1] 16983769 [2] 26578251 [3] 27535041 [4] 14210400 [5] 12465027 [6] 15368077 [7] 30100002 [8] 3214920 [9] 33513558 [10] 12769116 [11] 29338019 [12] 26649199 [13] 23154103 [14] 29812834 [15] 7981008 [16] 21087985 [17] 19022260 [18] 24654287 [19] 32659152 [20] 21959176 [21] 15892773 ;
